0 1 569
0 2 452
0 3 817
0 4 936
0 5 763
0 6 440
0 7 456
0 8 257
0 9 832
0 10 377
0 11 555
0 12 531
0 13 922
0 14 494
0 15 997
0 16 191
0 17 499
0 18 813
0 19 984
0 20 318
0 21 848
0 22 432
0 23 85
0 24 312
1 2 175
1 3 710
1 4 849
1 5 207
1 6 583
1 7 63
1 8 349
1 9 543
1 10 328
1 11 416
1 12 178
1 13 621
1 14 324
1 15 359
1 16 148
1 17 25
1 18 378
1 19 651
1 20 940
1 21 809
1 22 625
1 23 920
1 24 498
2 3 99
2 4 206
2 5 929
2 6 873
2 7 361
2 8 729
2 9 59
2 10 958
2 11 697
2 12 243
2 13 160
2 14 204
2 15 687
2 16 545
2 17 639
2 18 648
2 19 982
2 20 200
2 21 151
2 22 700
2 23 263
2 24 338
3 4 516
3 5 792
3 6 678
3 7 806
3 8 80
3 9 614
3 10 984
3 11 291
3 12 109
3 13 805
3 14 107
3 15 602
3 16 725
3 17 87
3 18 765
3 19 30
3 20 202
3 21 229
3 22 142
3 23 694
3 24 78
4 5 468
4 6 644
4 7 533
4 8 941
4 9 89
4 10 142
4 11 153
4 12 794
4 13 279
4 14 927
4 15 462
4 16 273
4 17 270
4 18 596
4 19 284
4 20 77
4 21 806
4 22 89
4 23 219
4 24 219
5 6 36
5 7 165
5 8 480
5 9 59
5 10 754
5 11 337
5 12 456
5 13 398
5 14 336
5 15 928
5 16 223
5 17 7
5 18 646
5 19 245
5 20 253
5 21 229
5 22 729
5 23 164
5 24 857
6 7 441
6 8 355
6 9 345
6 10 749
6 11 520
6 12 241
6 13 550
6 14 773
6 15 939
6 16 307
6 17 409
6 18 204
6 19 272
6 20 757
6 21 28
6 22 947
6 23 737
6 24 351
7 8 361
7 9 558
7 10 772
7 11 436
7 12 836
7 13 944
7 14 585
7 15 482
7 16 324
7 17 71
7 18 235
7 19 91
7 20 236
7 21 849
7 22 639
7 23 665
7 24 687
8 9 671
8 10 86
8 11 99
8 12 128
8 13 57
8 14 692
8 15 412
8 16 274
8 17 184
8 18 837
8 19 374
8 20 894
8 21 458
8 22 572
8 23 536
8 24 230
9 10 102
9 11 835
9 12 607
9 13 519
9 14 626
9 15 29
9 16 293
9 17 168
9 18 66
9 19 195
9 20 613
9 21 739
9 22 388
9 23 963
9 24 467
10 11 86
10 12 647
10 13 970
10 14 88
10 15 187
10 16 88
10 17 49
10 18 649
10 19 837
10 20 555
10 21 419
10 22 764
10 23 184
10 24 464
11 12 214
11 13 694
11 14 320
11 15 574
11 16 227
11 17 913
11 18 534
11 19 351
11 20 993
11 21 941
11 22 994
11 23 560
11 24 776
12 13 108
12 14 624
12 15 575
12 16 741
12 17 411
12 18 908
12 19 912
12 20 222
12 21 30
12 22 383
12 23 954
12 24 750
13 14 67
13 15 32
13 16 140
13 17 560
13 18 449
13 19 577
13 20 147
13 21 122
13 22 340
13 23 763
13 24 513
14 15 62
14 16 207
14 17 934
14 18 218
14 19 14
14 20 852
14 21 443
14 22 171
14 23 669
14 24 816
15 16 819
15 17 295
15 18 946
15 19 739
15 20 877
15 21 510
15 22 957
15 23 973
15 24 588
16 17 369
16 18 424
16 19 497
16 20 620
16 21 843
16 22 631
16 23 159
16 24 394
17 18 566
17 19 855
17 20 95
17 21 635
17 22 0
17 23 240
17 24 441
18 19 467
18 20 545
18 21 544
18 22 110
18 23 986
18 24 882
19 20 917
19 21 218
19 22 380
19 23 86
19 24 781
20 21 794
20 22 54
20 23 421
20 24 753
21 22 76
21 23 125
21 24 908
22 23 996
22 24 626
23 24 476
